\ENCODING=ISO-8859-1
\Problem name: IloCplex

Minimize
 obj1: 3000 mode(1)(1)#0 + 5000 mode(1)(2)#1 + 4000 mode(2)(1)#2
       + 5000 mode(2)(2)#3 + 10000 mode(3)(1)#4 + 12000 mode(3)(2)#5
       + 2000 beta#6
Subject To
 c1:  X(0)(0)#7 + X(0)(1)#8 + X(0)(2)#9 + X(0)(3)#10  = 1
 c2:  X(0)(0)#7 + X(1)(0)#11 + X(2)(0)#12 + X(3)(0)#13  = 1
 c3:  X(1)(0)#11 + X(1)(1)#14 + X(1)(2)#15 + X(1)(3)#16  = 1
 c4:  X(0)(1)#8 + X(1)(1)#14 + X(2)(1)#17 + X(3)(1)#18  = 1
 c5:  X(2)(0)#12 + X(2)(1)#17 + X(2)(2)#19 + X(2)(3)#20  = 1
 c6:  X(0)(2)#9 + X(1)(2)#15 + X(2)(2)#19 + X(3)(2)#21  = 1
 c7:  X(3)(0)#13 + X(3)(1)#18 + X(3)(2)#21 + X(3)(3)#22  = 1
 c8:  X(0)(3)#10 + X(1)(3)#16 + X(2)(3)#20 + X(3)(3)#22  = 1
 c9:  3 mode(1)(1)#0 + mode(1)(2)#1 + 35 X(0)(1)#8 + 5 mode(1)(0)#23 + C(0)#24
      - C(1)#25 <= 35
 c10: 8 mode(2)(1)#2 + 5 mode(2)(2)#3 + 35 X(0)(2)#9 + C(0)#24
      + 10 mode(2)(0)#26 - C(2)#27 <= 35
 c11: 15 mode(3)(1)#4 + 13 mode(3)(2)#5 + 35 X(0)(3)#10 + C(0)#24
      + 20 mode(3)(0)#28 - C(3)#29 <= 35
 c12: 8 mode(2)(1)#2 + 5 mode(2)(2)#3 + 35 X(1)(2)#15 + C(1)#25
      + 10 mode(2)(0)#26 - C(2)#27 <= 35
 c13: 15 mode(3)(1)#4 + 13 mode(3)(2)#5 + 35 X(1)(3)#16 + C(1)#25
      + 20 mode(3)(0)#28 - C(3)#29 <= 35
 c14: 3 mode(1)(1)#0 + mode(1)(2)#1 + 35 X(2)(1)#17 + 5 mode(1)(0)#23 - C(1)#25
      + C(2)#27 <= 35
 c15: 15 mode(3)(1)#4 + 13 mode(3)(2)#5 + 35 X(2)(3)#20 + C(2)#27
      + 20 mode(3)(0)#28 - C(3)#29 <= 35
 c16: 3 mode(1)(1)#0 + mode(1)(2)#1 + 35 X(3)(1)#18 + 5 mode(1)(0)#23 - C(1)#25
      + C(3)#29 <= 35
 c17: 8 mode(2)(1)#2 + 5 mode(2)(2)#3 + 35 X(3)(2)#21 + 10 mode(2)(0)#26
      - C(2)#27 + C(3)#29 <= 35
 c18: C(0)#24  = 0
 c19: X(0)(1)#8  = 1
 c20: - C(1)#25 + C(3)#29 >= 1
 c21: - C(2)#27 + C(3)#29 >= 1
 c22: X(3)(0)#13  = 1
 c23: mode(0)(0)#30 + mode(0)(1)#31 + mode(0)(2)#32  = 1
 c24: mode(1)(1)#0 + mode(1)(2)#1 + mode(1)(0)#23  = 1
 c25: mode(2)(1)#2 + mode(2)(2)#3 + mode(2)(0)#26  = 1
 c26: mode(3)(1)#4 + mode(3)(2)#5 + mode(3)(0)#28  = 1
 c27: - 3 mode(1)(1)#0 - mode(1)(2)#1 - 8 mode(2)(1)#2 - 5 mode(2)(2)#3
      - 15 mode(3)(1)#4 - 13 mode(3)(2)#5 - 5 mode(1)(0)#23 - 10 mode(2)(0)#26
      - 20 mode(3)(0)#28 + alfa#33  = 0
 c28: beta#6 - alfa#33 >= -20
 c29: X(0)(0)#7  = 0
 c30: X(1)(1)#14  = 0
 c31: X(2)(2)#19  = 0
 c32: X(3)(3)#22  = 0
Bounds
 0 <= mode(1)(1)#0 <= 1
 0 <= mode(1)(2)#1 <= 1
 0 <= mode(2)(1)#2 <= 1
 0 <= mode(2)(2)#3 <= 1
 0 <= mode(3)(1)#4 <= 1
 0 <= mode(3)(2)#5 <= 1
 0 <= beta#6 <= 35
 0 <= X(0)(0)#7 <= 1
 0 <= X(0)(1)#8 <= 1
 0 <= X(0)(2)#9 <= 1
 0 <= X(0)(3)#10 <= 1
 0 <= X(1)(0)#11 <= 1
 0 <= X(2)(0)#12 <= 1
 0 <= X(3)(0)#13 <= 1
 0 <= X(1)(1)#14 <= 1
 0 <= X(1)(2)#15 <= 1
 0 <= X(1)(3)#16 <= 1
 0 <= X(2)(1)#17 <= 1
 0 <= X(3)(1)#18 <= 1
 0 <= X(2)(2)#19 <= 1
 0 <= X(2)(3)#20 <= 1
 0 <= X(3)(2)#21 <= 1
 0 <= X(3)(3)#22 <= 1
 0 <= mode(1)(0)#23 <= 1
      C(0)#24 >= 0
      C(1)#25 >= 0
 0 <= mode(2)(0)#26 <= 1
      C(2)#27 >= 0
 0 <= mode(3)(0)#28 <= 1
      C(3)#29 >= 0
 0 <= mode(0)(0)#30 <= 1
 0 <= mode(0)(1)#31 <= 1
 0 <= mode(0)(2)#32 <= 1
      alfa#33 >= 0
Binaries
 mode(1)(1)#0  mode(1)(2)#1  mode(2)(1)#2  mode(2)(2)#3  mode(3)(1)#4 
 mode(3)(2)#5  X(0)(0)#7  X(0)(1)#8  X(0)(2)#9  X(0)(3)#10  X(1)(0)#11 
 X(2)(0)#12  X(3)(0)#13  X(1)(1)#14  X(1)(2)#15  X(1)(3)#16  X(2)(1)#17 
 X(3)(1)#18  X(2)(2)#19  X(2)(3)#20  X(3)(2)#21  X(3)(3)#22  mode(1)(0)#23 
 mode(2)(0)#26  mode(3)(0)#28  mode(0)(0)#30  mode(0)(1)#31  mode(0)(2)#32 
Generals
 beta#6  C(0)#24  C(1)#25  C(2)#27  C(3)#29  alfa#33 
End
